c Random generated cnf formula, satisfiable: true
p cnf 10 50
-10 8 6 0
-10 9 2 0
-3 8 7 0
-8 -4 -9 0
-9 -6 4 0
-4 7 -9 0
4 10 -3 0
5 -2 -8 0
10 -1 8 0
-3 -7 -4 0
-6 2 8 0
7 5 6 0
-3 1 -10 0
2 7 -8 0
10 -7 4 0
-9 8 -4 0
-3 -2 -9 0
-3 10 -8 0
6 7 -9 0
8 -6 -1 0
-5 4 -3 0
9 -2 8 0
-5 -7 -6 0
5 2 3 0
1 9 -8 0
-2 6 -7 0
10 -9 4 0
1 -9 6 0
-5 1 -8 0
1 7 -10 0
1 -4 9 0
5 7 -6 0
-7 5 4 0
10 4 9 0
-3 7 -8 0
6 -7 -8 0
5 8 3 0
-1 5 -8 0
9 7 6 0
3 -4 -7 0
-7 -10 -1 0
6 2 -9 0
-1 -3 7 0
-5 -4 6 0
-1 6 -3 0
9 10 -7 0
-3 -7 10 0
9 -4 -10 0
4 10 -9 0
2 1 -3 0
